JulietBench/Juliet_Based_Patch_Bench/FFmpeg/CWE-189-Numeric-Errors/CVE_2014_8545_3e2b745020c2dbf0201fe7df3dad9e7e0b2e1bb6/Resultdecode_frame_Snippet_patch1NEQ.smt2
; benchmark generated from python API
(set-info :status unknown)
(declare-fun R () (_ BitVec 32))
(declare-fun rdi () (_ BitVec 64))
(declare-fun rsi () (_ BitVec 64))
(declare-fun rdx () (_ BitVec 64))
(assert
 (let (($x531 (= (_ bv0 32) R)))
 (let ((?x6 ((_ extract 31 0) rdi)))
 (let (($x15 (= (_ bv2 32) ?x6)))
 (let ((?x8 ((_ extract 31 0) rsi)))
 (let (($x53 (= (_ bv2 32) ?x8)))
 (let (($x535 (and $x53 $x15 $x531)))
 (let (($x64 (= (_ bv4 32) ?x6)))
 (let (($x534 (and $x53 $x64 $x531)))
 (let (($x527 (= (_ bv1 32) R)))
 (let (($x57 (and (distinct (_ bv2 32) ?x8) true)))
 (let (($x153 (= (_ bv6 32) ?x8)))
 (let (($x533 (and $x153 $x57 $x15 $x527)))
 (let (($x42 (= (_ bv8 32) ?x6)))
 (let (($x532 (and $x53 $x42 $x531)))
 (let (($x520 (= (_ bv2 32) R)))
 (let (($x220 (and (distinct (_ bv6 32) ?x8) true)))
 (let (($x258 (= (_ bv0 32) ?x8)))
 (let (($x530 (and $x258 $x220 $x57 $x15 $x520)))
 (let (($x529 (and $x153 $x57 $x64 $x527)))
 (let (($x528 (and $x153 $x57 $x42 $x527)))
 (let (($x526 (and $x258 $x220 $x57 $x64 $x520)))
 (let (($x378 (= (_ bv6 32) R)))
 (let (($x259 (and (distinct (_ bv0 32) ?x8) true)))
 (let (($x144 (and (distinct (_ bv16 32) ?x6) true)))
 (let ((?x10 ((_ extract 31 0) rdx)))
 (let (($x46 (= (_ bv1 32) ?x10)))
 (let (($x278 (= (_ bv3 32) ?x8)))
 (let (($x525 (and $x278 $x46 $x144 $x259 $x220 $x57 $x15 $x378)))
 (let (($x523 (= (_ bv3 32) R)))
 (let (($x147 (= (_ bv16 32) ?x6)))
 (let (($x524 (and $x258 $x147 $x523)))
 (let (($x263 (and (distinct (_ bv1 32) ?x10) true)))
 (let (($x284 (= (_ bv2 32) ?x10)))
 (let (($x522 (and $x278 $x284 $x263 $x144 $x259 $x220 $x57 $x15 $x378)))
 (let (($x521 (and $x258 $x220 $x57 $x42 $x520)))
 (let (($x379 (= (_ bv4294967295 32) R)))
 (let (($x275 (and (distinct (_ bv3 32) ?x8) true)))
 (let (($x62 (and (distinct (_ bv1 32) ?x6) true)))
 (let (($x148 (and (distinct (_ bv8 32) ?x6) true)))
 (let (($x519 (and $x148 $x62 $x275 $x46 $x144 $x259 $x220 $x57 $x15 $x379)))
 (let (($x350 (and (distinct (_ bv2 32) ?x10) true)))
 (let (($x221 (= (_ bv4 32) ?x10)))
 (let (($x518 (and $x278 $x221 $x350 $x263 $x144 $x259 $x220 $x57 $x15 $x378)))
 (let (($x516 (= (_ bv4 32) R)))
 (let (($x517 (and $x53 $x259 $x147 $x516)))
 (let (($x515 (and $x148 $x62 $x275 $x284 $x263 $x144 $x259 $x220 $x57 $x15 $x379)))
 (let (($x368 (and (distinct (_ bv4 32) ?x10) true)))
 (let (($x366 (= (_ bv8 32) ?x10)))
 (let (($x514 (and $x278 $x366 $x368 $x350 $x263 $x144 $x259 $x220 $x57 $x15 $x378)))
 (let (($x513 (and $x278 $x46 $x144 $x259 $x220 $x57 $x64 $x378)))
 (let (($x41 (and (distinct (_ bv2 32) ?x6) true)))
 (let (($x140 (and (distinct (_ bv4 32) ?x6) true)))
 (let (($x512 (and $x278 $x46 $x144 $x148 $x140 $x41 $x378)))
 (let (($x511 (and $x148 $x62 $x275 $x221 $x350 $x263 $x144 $x259 $x220 $x57 $x15 $x379)))
 (let (($x374 (and (distinct (_ bv8 32) ?x10) true)))
 (let (($x510 (and $x148 $x62 $x374 $x368 $x350 $x263 $x144 $x259 $x220 $x57 $x15 $x379)))
 (let (($x509 (and $x278 $x284 $x263 $x144 $x259 $x220 $x57 $x64 $x378)))
 (let (($x507 (= (_ bv5 32) R)))
 (let (($x508 (and $x153 $x57 $x259 $x147 $x507)))
 (let (($x504 (and $x278 $x284 $x263 $x144 $x148 $x140 $x41 $x378)))
 (let (($x503 (and $x148 $x62 $x275 $x366 $x368 $x350 $x263 $x144 $x259 $x220 $x57 $x15 $x379)))
 (let (($x502 (and $x148 $x62 $x275 $x46 $x144 $x259 $x220 $x57 $x64 $x379)))
 (let (($x501 (and $x278 $x221 $x350 $x263 $x144 $x259 $x220 $x57 $x64 $x378)))
 (let (($x483 (= (_ bv7 32) R)))
 (let (($x261 (= (_ bv1 32) ?x6)))
 (let (($x505 (and $x261 $x275 $x46 $x144 $x148 $x140 $x41 $x483)))
 (let (($x500 (and $x62 $x275 $x46 $x144 $x148 $x140 $x41 $x379)))
 (let (($x498 (and $x278 $x221 $x350 $x263 $x144 $x148 $x140 $x41 $x378)))
 (let (($x497 (and $x148 $x62 $x275 $x284 $x263 $x144 $x259 $x220 $x57 $x64 $x379)))
 (let (($x496 (and $x278 $x366 $x368 $x350 $x263 $x144 $x259 $x220 $x57 $x64 $x378)))
 (let (($x495 (and $x278 $x46 $x144 $x259 $x220 $x57 $x42 $x378)))
 (let (($x494 (and $x278 $x46 $x220 $x57 $x259 $x147 $x378)))
 (let (($x493 (and $x62 $x275 $x284 $x263 $x144 $x148 $x140 $x41 $x379)))
 (let (($x491 (and $x278 $x366 $x368 $x350 $x263 $x144 $x148 $x140 $x41 $x378)))
 (let (($x489 (and $x148 $x62 $x275 $x221 $x350 $x263 $x144 $x259 $x220 $x57 $x64 $x379)))
 (let (($x488 (and $x148 $x62 $x374 $x368 $x350 $x263 $x144 $x259 $x220 $x57 $x64 $x379)))
 (let (($x487 (and $x278 $x284 $x263 $x144 $x259 $x220 $x57 $x42 $x378)))
 (let (($x486 (and $x278 $x284 $x263 $x220 $x57 $x259 $x147 $x378)))
 (let (($x540 (and $x261 $x275 $x284 $x263 $x144 $x148 $x140 $x41 $x379)))
 (let (($x485 (and $x62 $x275 $x221 $x350 $x263 $x144 $x148 $x140 $x41 $x379)))
 (let (($x481 (and $x62 $x374 $x368 $x350 $x263 $x144 $x148 $x140 $x41 $x379)))
 (let (($x480 (and $x148 $x62 $x275 $x366 $x368 $x350 $x263 $x144 $x259 $x220 $x57 $x64 $x379)))
 (let (($x426 (and $x278 $x221 $x350 $x263 $x144 $x259 $x220 $x57 $x42 $x378)))
 (let (($x229 (and $x278 $x221 $x350 $x263 $x220 $x57 $x259 $x147 $x378)))
 (let (($x539 (and $x261 $x275 $x221 $x350 $x263 $x144 $x148 $x140 $x41 $x379)))
 (let (($x51 (and $x62 $x275 $x366 $x368 $x350 $x263 $x144 $x148 $x140 $x41 $x379)))
 (let (($x538 (and $x261 $x374 $x368 $x350 $x263 $x144 $x148 $x140 $x41 $x379)))
 (let (($x219 (= (_ bv8 32) R)))
 (let (($x430 (= (_ bv4 32) ?x8)))
 (let (($x477 (and $x430 $x62 $x275 $x46 $x144 $x259 $x220 $x57 $x42 $x219)))
 (let (($x453 (and (distinct (_ bv4 32) ?x8) true)))
 (let (($x479 (and $x453 $x62 $x275 $x46 $x144 $x259 $x220 $x57 $x42 $x379)))
 (let (($x47 (and $x278 $x366 $x368 $x350 $x263 $x144 $x259 $x220 $x57 $x42 $x378)))
 (let (($x373 (and $x453 $x62 $x275 $x46 $x220 $x57 $x259 $x147 $x379)))
 (let (($x354 (and $x278 $x366 $x368 $x350 $x263 $x220 $x57 $x259 $x147 $x378)))
 (let (($x537 (and $x261 $x275 $x366 $x368 $x350 $x263 $x144 $x148 $x140 $x41 $x379)))
 (let (($x392 (and $x430 $x62 $x275 $x284 $x263 $x144 $x259 $x220 $x57 $x42 $x219)))
 (let (($x356 (and $x453 $x62 $x275 $x284 $x263 $x144 $x259 $x220 $x57 $x42 $x379)))
 (let (($x50 (= (_ bv9 32) R)))
 (let (($x371 (and $x430 $x62 $x275 $x46 $x220 $x57 $x259 $x147 $x50)))
 (let (($x376 (and $x453 $x62 $x275 $x284 $x263 $x220 $x57 $x259 $x147 $x379)))
 (let (($x60 (and $x430 $x62 $x275 $x221 $x350 $x263 $x144 $x259 $x220 $x57 $x42 $x219)))
 (let (($x224 (and $x453 $x62 $x275 $x221 $x350 $x263 $x144 $x259 $x220 $x57 $x42 $x379)))
 (let (($x246 (and $x430 $x62 $x374 $x368 $x350 $x263 $x144 $x259 $x220 $x57 $x42 $x219)))
 (let (($x245 (and $x453 $x62 $x374 $x368 $x350 $x263 $x144 $x259 $x220 $x57 $x42 $x379)))
 (let (($x58 (and $x430 $x62 $x275 $x284 $x263 $x220 $x57 $x259 $x147 $x50)))
 (let (($x59 (and $x453 $x62 $x275 $x221 $x350 $x263 $x220 $x57 $x259 $x147 $x379)))
 (let (($x55 (and $x453 $x62 $x374 $x368 $x350 $x263 $x220 $x57 $x259 $x147 $x379)))
 (let (($x56 (and $x430 $x62 $x275 $x366 $x368 $x350 $x263 $x144 $x259 $x220 $x57 $x42 $x219)))
 (let (($x362 (and $x453 $x62 $x275 $x366 $x368 $x350 $x263 $x144 $x259 $x220 $x57 $x42 $x379)))
 (let (($x35 (and $x430 $x62 $x275 $x221 $x350 $x263 $x220 $x57 $x259 $x147 $x50)))
 (let (($x36 (and $x453 $x62 $x275 $x366 $x368 $x350 $x263 $x220 $x57 $x259 $x147 $x379)))
 (let (($x39 (and $x430 $x62 $x374 $x368 $x350 $x263 $x220 $x57 $x259 $x147 $x50)))
 (let (($x40 (and $x430 $x62 $x275 $x366 $x368 $x350 $x263 $x220 $x57 $x259 $x147 $x50)))
 (let (($x541 (or $x40 $x39 $x36 $x35 $x362 $x56 $x55 $x59 $x58 $x245 $x246 $x224 $x60 $x376 $x371 $x356 $x392 $x537 $x354 $x373 $x47 $x479 $x477 $x538 $x51 $x539 $x229 $x426 $x480 $x481 $x485 $x540 $x486 $x487 $x488 $x489 $x491 $x493 $x494 $x495 $x496 $x497 $x498 $x500 $x505 $x501 $x502 $x503 $x504 $x508 $x509 $x510 $x511 $x512 $x513 $x514 $x515 $x517 $x518 $x519 $x521 $x522 $x524 $x525 $x526 $x528 $x529 $x530 $x532 $x533 $x534 $x535)))
 (let (($x544 (not $x541)))
 (let (($x499 (and $x261 $x275 $x284 $x263 $x144 $x148 $x140 $x41 $x483)))
 (let (($x492 (and $x261 $x275 $x221 $x350 $x263 $x144 $x148 $x140 $x41 $x483)))
 (let (($x490 (and $x261 $x374 $x368 $x350 $x263 $x144 $x148 $x140 $x41 $x483)))
 (let (($x484 (and $x261 $x275 $x366 $x368 $x350 $x263 $x144 $x148 $x140 $x41 $x483)))
 (let (($x536 (or $x40 $x39 $x36 $x35 $x362 $x56 $x55 $x59 $x58 $x245 $x246 $x224 $x60 $x376 $x371 $x356 $x392 $x354 $x373 $x47 $x479 $x477 $x51 $x229 $x426 $x480 $x481 $x484 $x485 $x486 $x487 $x488 $x489 $x490 $x491 $x492 $x493 $x494 $x495 $x496 $x497 $x498 $x499 $x500 $x501 $x502 $x503 $x504 $x505 $x508 $x509 $x510 $x511 $x512 $x513 $x514 $x515 $x517 $x518 $x519 $x521 $x522 $x524 $x525 $x526 $x528 $x529 $x530 $x532 $x533 $x534 $x535)))
 (let (($x543 (not $x536)))
 (let (($x545 (and $x543 $x544)))
 (let (($x542 (and $x536 $x541)))
 (let (($x546 (or $x542 $x545)))
 (not $x546)))))))))))))))))))))))))))))))))))))))))))))))))))))))))))))))))))))))))))))))))))))))))))))))))))))))))))))))))))))))))))))))
(check-sat)
